(set-logic UF)
(declare-sort S1 0)
(declare-sort S2 0)
(declare-sort S3 0)
(declare-sort S4 0)
(declare-sort S5 0)
(declare-sort S6 0)
(declare-sort S7 0)
(declare-sort S8 0)
(declare-sort S9 0)
(declare-sort S10 0)
(declare-sort S11 0)
(declare-sort S12 0)
(declare-sort S13 0)
(declare-sort S14 0)
(declare-sort S15 0)
(declare-fun f1 () S1)
(declare-fun f2 () S1)
(declare-fun f3 (S3 S2) S1)
(declare-fun f4 (S4 S2) S3)
(declare-fun f5 () S4)
(declare-fun f6 (S6 S5) S1)
(declare-fun f7 (S7 S6) S6)
(declare-fun f8 (S5) S7)
(declare-fun f9 (S5 S6) S1)
(declare-fun f10 () S6)
(declare-fun f11 (S9) S4)
(declare-fun f12 (S10 S11) S9)
(declare-fun f13 () S10)
(declare-fun f14 (S8) S11)
(declare-fun f15 (S12 S8) S9)
(declare-fun f16 () S12)
(declare-fun f17 (S6 S6) S1)
(declare-fun f18 (S5) S7)
(declare-fun f19 (S13 S4) S5)
(declare-fun f20 (S14 S9) S13)
(declare-fun f21 (S15 S4) S14)
(declare-fun f22 () S15)
(declare-fun f23 () S6)
(declare-fun f24 (S6) S6)
(declare-fun f25 () S8)
(declare-fun f26 () S6)
(assert (not (= (f18 (f19 (f20 (f21 f22 f5) (f15 f16 f25)) (f11 (f15 f16 f25)))) (f18 (f19 (f20 (f21 f22 f5) (f15 f16 f25)) (f11 (f15 f16 f25)))))))
(check-sat)
(exit)
